# b3lyp/6-311++g(d,p) output=wfn

Single Point Energy

-1 1
 C                 -0.85518697   -0.00005160    0.00020515
 H                 -0.88263797   -0.90942860   -0.56659285
 H                 -0.88263397    0.94551440   -0.50390485
 H                 -0.88261997   -0.03624660    1.07115615
 Br                 1.61605503    0.00000440   -0.00001885
 Cl                -3.27735997    0.00001240   -0.00004685

frame.wfn
