# b3lyp/6-311++g(d,p) output=wfn

Single Point Energy

-1 1
 C                 -1.45468400   -0.00005300    0.00014200
 H                 -1.12620400   -0.87505800   -0.54526700
 H                 -1.12613100    0.90979200   -0.48487200
 H                 -1.12635600   -0.03493300    1.03067100
 Br                 1.73178100    0.00001100   -0.00001600
 Cl                -3.31174600   -0.00000100   -0.00002900

frame.wfn
