# b3lyp/6-311++g(d,p) output=wfn

Single Point Energy

-1 1
 C                 -1.39058500   -0.00003100    0.00006000
 H                 -1.06622200   -0.87557800   -0.54565100
 H                 -1.06621700    0.91034900   -0.48531600
 H                 -1.06629000   -0.03486700    1.03118300
 Br                 1.69238200    0.00000600   -0.00000400
 Cl                -3.25001100   -0.00000100   -0.00001800

frame.wfn
