# b3lyp/6-311++g(d,p) output=wfn

Single Point Energy

-1 1
 C                 -1.36911600   -0.00005000    0.00008100
 H                 -1.04650900   -0.87587100   -0.54573600
 H                 -1.04647800    0.91054900   -0.48548100
 H                 -1.04656800   -0.03484200    1.03149000
 Br                 1.67926400    0.00000900   -0.00000800
 Cl                -3.22948000    0.00000200   -0.00001800

frame.wfn
