# b3lyp/6-311++g(d,p) output=wfn

Single Point Energy

-1 1
 C                 -0.65254800   -0.00006000    0.00021200
 H                 -0.84244400   -0.89873400   -0.55974900
 H                 -0.84246000    0.93422900   -0.49804500
 H                 -0.84234800   -0.03569000    1.05848900
 Br                 1.59839800    0.00000300   -0.00001200
 Cl                -3.31052600    0.00001900   -0.00006500

frame.wfn
