# b3lyp/6-311++g(d,p) output=wfn

Single Point Energy

-1 1
 C                 -0.55306600   -0.00006300    0.00021600
 H                 -0.80515800   -0.88966000   -0.55399700
 H                 -0.80520400    0.92470400   -0.49304900
 H                 -0.80503700   -0.03525800    1.04776900
 Br                 1.58978200    0.00000200   -0.00000900
 Cl                -3.32844300    0.00002400   -0.00007600

frame.wfn
