# b3lyp/6-311++g(d,p) output=wfn

Single Point Energy

-1 1
 C                 -1.00744600   -0.00006000    0.00019300
 H                 -0.90186800   -0.90682000   -0.56488000
 H                 -0.90184600    0.94270000   -0.50251100
 H                 -0.90192900   -0.03607500    1.06801900
 Br                 1.62807100    0.00000700   -0.00001800
 Cl                -3.25056400    0.00001000   -0.00004500

frame.wfn
