# b3lyp/6-311++g(d,p) output=wfn

Single Point Energy

-1 1
 C                 -1.47608000   -0.00008600    0.00015400
 H                 -1.14647600   -0.87495000   -0.54517700
 H                 -1.14636100    0.90960500   -0.48477700
 H                 -1.14662300   -0.03497400    1.03052000
 Br                 1.74491500    0.00001500   -0.00001600
 Cl                -3.33229200    0.00000400   -0.00003400

frame.wfn
