# b3lyp/6-311++g(d,p) output=wfn

Single Point Energy

-1 1
 C                 -0.42084800   -0.00007500    0.00017900
 H                 -0.72848800   -0.87953600   -0.54734000
 H                 -0.72855700    0.91381000   -0.48767100
 H                 -0.72837900   -0.03452900    1.03560700
 Br                 1.61574500   -0.00000300    0.00001800
 Cl                -3.43903800    0.00004000   -0.00011900

frame.wfn
