# b3lyp/6-311++g(d,p) output=wfn

Single Point Energy

-1 1
 C                 -1.49748500   -0.00010300    0.00009000
 H                 -1.16687000   -0.87482400   -0.54520800
 H                 -1.16674600    0.90947000   -0.48476000
 H                 -1.16695400   -0.03501700    1.03029400
 Br                 1.75804800    0.00001700    0.00000000
 Cl                -3.35282500    0.00000700   -0.00004000

frame.wfn
