# b3lyp/6-311++g(d,p) output=wfn

Single Point Energy

-1 1
 C                 -0.60253500   -0.00006100    0.00021300
 H                 -0.82525100   -0.89429000   -0.55693500
 H                 -0.82528000    0.92956800   -0.49559900
 H                 -0.82514100   -0.03547900    1.05324100
 Br                 1.59390200    0.00000300   -0.00001100
 Cl                -3.31902900    0.00002100   -0.00007000

frame.wfn
