# b3lyp/6-311++g(d,p) output=wfn

Single Point Energy

-1 1
 C                 -0.40951200   -0.00005100    0.00007400
 H                 -0.71913300   -0.87927400   -0.54721000
 H                 -0.71918000    0.91350300   -0.48771900
 H                 -0.71911500   -0.03439900    1.03515200
 Br                 1.62564600   -0.00000600    0.00003100
 Cl                -3.46608000    0.00003700   -0.00010300

frame.wfn
